-380.0 4.0 6.0 0.0 0.0 6.0 3.0 7.0 4.0 7.0 8.0 0.0 5.0 0.0 8.0 0.0 2.0 5.0 8.0 2.0 8.0 10.0 7.0 3.0 3.0 10.0 2.0 5.0 1.0 7.0 7.0 5.0 9.0 3.0 6.0 5.0 6.0 7.0 10.0 2.0 4.0 8.0 3.0 2.0 3.0 7.0 9.0 1.0 4.0 5.0 6.0 9.0 8.0 2.0 6.0 8.0 0.0 0.0 4.0 4.0 2.0 6.0 8.0 1.0 9.0 9.0 7.0 7.0 7.0 10.0 8.0 3.0 10.0 9.0 0.0 
4.0 -371.0 1.0 6.0 7.0 1.0 6.0 10.0 3.0 5.0 8.0 2.0 1.0 5.0 3.0 6.0 8.0 2.0 4.0 1.0 10.0 8.0 7.0 8.0 7.0 5.0 2.0 10.0 4.0 2.0 1.0 6.0 1.0 1.0 5.0 9.0 10.0 8.0 8.0 8.0 3.0 6.0 10.0 10.0 5.0 1.0 7.0 10.0 9.0 4.0 6.0 10.0 10.0 7.0 6.0 2.0 6.0 5.0 2.0 2.0 9.0 9.0 10.0 6.0 8.0 1.0 4.0 0.0 0.0 0.0 0.0 0.0 0.0 0.0 0.0 
6.0 1.0 -414.0 4.0 8.0 2.0 5.0 7.0 8.0 7.0 5.0 7.0 10.0 0.0 7.0 9.0 5.0 2.0 4.0 9.0 1.0 7.0 3.0 7.0 6.0 8.0 7.0 4.0 6.0 0.0 9.0 0.0 7.0 7.0 4.0 10.0 8.0 7.0 5.0 6.0 4.0 6.0 2.0 1.0 6.0 8.0 9.0 4.0 8.0 5.0 9.0 2.0 7.0 0.0 0.0 10.0 3.0 7.0 10.0 6.0 9.0 10.0 5.0 10.0 5.0 2.0 2.0 7.0 5.0 5.0 8.0 6.0 7.0 0.0 8.0 
0.0 6.0 4.0 -321.0 1.0 3.0 0.0 4.0 4.0 0.0 2.0 8.0 4.0 1.0 0.0 1.0 3.0 2.0 5.0 3.0 5.0 4.0 4.0 2.0 3.0 2.0 9.0 4.0 6.0 1.0 3.0 6.0 2.0 2.0 7.0 3.0 0.0 5.0 4.0 5.0 7.0 1.0 1.0 7.0 9.0 3.0 5.0 8.0 9.0 8.0 8.0 7.0 3.0 1.0 7.0 10.0 5.0 5.0 10.0 2.0 6.0 7.0 10.0 1.0 2.0 10.0 6.0 4.0 7.0 0.0 3.0 9.0 1.0 5.0 6.0 
0.0 7.0 8.0 1.0 -355.0 8.0 5.0 0.0 8.0 2.0 5.0 6.0 0.0 7.0 2.0 3.0 1.0 3.0 3.0 0.0 3.0 5.0 1.0 9.0 2.0 3.0 6.0 6.0 0.0 5.0 7.0 10.0 9.0 9.0 1.0 10.0 0.0 10.0 4.0 3.0 10.0 1.0 1.0 10.0 4.0 8.0 8.0 10.0 4.0 10.0 1.0 0.0 1.0 2.0 3.0 10.0 8.0 7.0 5.0 4.0 9.0 7.0 3.0 6.0 5.0 10.0 5.0 4.0 6.0 2.0 5.0 5.0 2.0 1.0 6.0 
6.0 1.0 2.0 3.0 8.0 -358.0 8.0 6.0 3.0 3.0 2.0 5.0 2.0 1.0 8.0 9.0 6.0 10.0 4.0 6.0 4.0 5.0 7.0 0.0 3.0 10.0 0.0 3.0 3.0 7.0 3.0 8.0 4.0 6.0 1.0 6.0 8.0 8.0 0.0 7.0 5.0 3.0 3.0 6.0 2.0 8.0 5.0 0.0 8.0 7.0 2.0 5.0 9.0 3.0 9.0 6.0 0.0 8.0 6.0 5.0 10.0 8.0 2.0 7.0 8.0 2.0 4.0 3.0 1.0 6.0 8.0 9.0 4.0 0.0 0.0 
3.0 6.0 5.0 0.0 5.0 8.0 -370.0 1.0 2.0 10.0 4.0 6.0 2.0 8.0 4.0 2.0 7.0 10.0 0.0 2.0 4.0 2.0 5.0 3.0 9.0 2.0 7.0 8.0 3.0 2.0 7.0 7.0 5.0 7.0 2.0 2.0 9.0 4.0 1.0 8.0 7.0 0.0 8.0 9.0 8.0 2.0 8.0 2.0 2.0 6.0 8.0 6.0 6.0 8.0 10.0 1.0 7.0 9.0 4.0 0.0 1.0 3.0 7.0 4.0 2.0 5.0 10.0 5.0 10.0 4.0 7.0 8.0 6.0 2.0 3.0 
7.0 10.0 7.0 4.0 0.0 6.0 1.0 -343.0 6.0 1.0 4.0 10.0 0.0 10.0 5.0 10.0 6.0 8.0 7.0 3.0 6.0 7.0 8.0 3.0 5.0 8.0 2.0 4.0 4.0 4.0 3.0 2.0 6.0 8.0 3.0 1.0 0.0 1.0 1.0 3.0 5.0 7.0 7.0 1.0 0.0 5.0 8.0 3.0 1.0 9.0 7.0 1.0 1.0 3.0 2.0 6.0 1.0 6.0 3.0 6.0 3.0 0.0 9.0 3.0 8.0 6.0 7.0 5.0 3.0 1.0 9.0 9.0 6.0 3.0 5.0 
4.0 3.0 8.0 4.0 8.0 3.0 2.0 6.0 -378.0 7.0 9.0 10.0 1.0 3.0 0.0 3.0 10.0 0.0 8.0 6.0 9.0 10.0 1.0 7.0 4.0 5.0 1.0 0.0 6.0 3.0 5.0 4.0 1.0 5.0 0.0 10.0 2.0 10.0 0.0 5.0 7.0 8.0 10.0 5.0 10.0 5.0 9.0 5.0 4.0 7.0 8.0 4.0 0.0 2.0 1.0 9.0 8.0 4.0 4.0 6.0 9.0 7.0 7.0 1.0 4.0 3.0 5.0 7.0 10.0 5.0 4.0 7.0 3.0 1.0 6.0 
7.0 5.0 7.0 0.0 2.0 3.0 10.0 1.0 7.0 -325.0 3.0 0.0 9.0 8.0 1.0 7.0 4.0 8.0 0.0 7.0 1.0 9.0 10.0 6.0 8.0 4.0 8.0 10.0 1.0 0.0 1.0 4.0 4.0 2.0 0.0 2.0 7.0 0.0 5.0 6.0 1.0 2.0 8.0 4.0 6.0 2.0 7.0 1.0 10.0 7.0 2.0 7.0 1.0 3.0 3.0 1.0 4.0 3.0 7.0 2.0 5.0 1.0 2.0 5.0 0.0 2.0 0.0 9.0 2.0 3.0 9.0 3.0 6.0 10.0 10.0 
8.0 8.0 5.0 2.0 5.0 2.0 4.0 4.0 9.0 3.0 -388.0 5.0 7.0 9.0 5.0 0.0 10.0 3.0 5.0 4.0 4.0 1.0 3.0 8.0 3.0 1.0 9.0 0.0 8.0 7.0 5.0 0.0 0.0 3.0 8.0 6.0 8.0 2.0 10.0 1.0 9.0 7.0 1.0 3.0 8.0 6.0 8.0 6.0 5.0 0.0 4.0 5.0 7.0 0.0 6.0 5.0 8.0 10.0 10.0 10.0 6.0 9.0 5.0 8.0 6.0 3.0 1.0 8.0 10.0 8.0 1.0 8.0 0.0 3.0 9.0 
0.0 2.0 7.0 8.0 6.0 5.0 6.0 10.0 10.0 0.0 5.0 -345.0 4.0 8.0 8.0 0.0 5.0 2.0 9.0 6.0 1.0 6.0 0.0 2.0 6.0 5.0 9.0 0.0 5.0 3.0 4.0 0.0 0.0 7.0 6.0 0.0 8.0 4.0 6.0 9.0 5.0 2.0 1.0 5.0 4.0 2.0 0.0 9.0 1.0 3.0 9.0 3.0 2.0 9.0 0.0 4.0 10.0 9.0 2.0 2.0 7.0 5.0 9.0 1.0 10.0 7.0 9.0 5.0 6.0 7.0 5.0 1.0 1.0 8.0 0.0 
5.0 1.0 10.0 4.0 0.0 2.0 2.0 0.0 1.0 9.0 7.0 4.0 -370.0 0.0 0.0 7.0 9.0 6.0 3.0 7.0 0.0 6.0 9.0 2.0 9.0 7.0 10.0 10.0 8.0 1.0 5.0 9.0 8.0 8.0 9.0 0.0 7.0 0.0 0.0 2.0 4.0 9.0 8.0 9.0 4.0 3.0 5.0 1.0 9.0 10.0 8.0 4.0 1.0 3.0 8.0 7.0 4.0 5.0 8.0 2.0 3.0 1.0 9.0 2.0 3.0 8.0 2.0 2.0 7.0 9.0 5.0 0.0 9.0 9.0 2.0 
0.0 5.0 0.0 1.0 7.0 1.0 8.0 10.0 3.0 8.0 9.0 8.0 0.0 -392.0 8.0 1.0 8.0 2.0 7.0 0.0 8.0 9.0 8.0 1.0 4.0 3.0 0.0 1.0 5.0 8.0 4.0 7.0 8.0 1.0 0.0 9.0 9.0 0.0 10.0 6.0 4.0 10.0 10.0 9.0 7.0 7.0 0.0 7.0 9.0 6.0 9.0 8.0 10.0 9.0 4.0 0.0 4.0 4.0 1.0 9.0 0.0 5.0 2.0 4.0 2.0 10.0 10.0 3.0 3.0 10.0 8.0 8.0 1.0 2.0 10.0 
8.0 3.0 7.0 0.0 2.0 8.0 4.0 5.0 0.0 1.0 5.0 8.0 0.0 8.0 -336.0 7.0 8.0 10.0 1.0 1.0 8.0 1.0 10.0 10.0 1.0 7.0 0.0 0.0 9.0 5.0 6.0 2.0 7.0 3.0 2.0 6.0 10.0 5.0 1.0 9.0 9.0 2.0 9.0 1.0 6.0 7.0 4.0 9.0 4.0 0.0 0.0 3.0 5.0 0.0 5.0 2.0 2.0 5.0 0.0 7.0 3.0 8.0 10.0 9.0 0.0 10.0 2.0 7.0 6.0 5.0 0.0 0.0 6.0 0.0 2.0 
0.0 6.0 9.0 1.0 3.0 9.0 2.0 10.0 3.0 7.0 0.0 0.0 7.0 1.0 7.0 -347.0 7.0 8.0 8.0 9.0 2.0 6.0 3.0 4.0 0.0 0.0 4.0 3.0 10.0 2.0 1.0 5.0 4.0 8.0 5.0 10.0 5.0 7.0 4.0 5.0 2.0 0.0 0.0 7.0 3.0 0.0 6.0 3.0 2.0 4.0 7.0 1.0 5.0 9.0 8.0 8.0 1.0 6.0 3.0 1.0 6.0 4.0 9.0 2.0 6.0 5.0 6.0 10.0 8.0 9.0 6.0 9.0 2.0 4.0 0.0 
2.0 8.0 5.0 3.0 1.0 6.0 7.0 6.0 10.0 4.0 10.0 5.0 9.0 8.0 8.0 7.0 -424.0 2.0 3.0 1.0 9.0 6.0 7.0 0.0 2.0 8.0 10.0 4.0 1.0 7.0 10.0 5.0 8.0 6.0 5.0 8.0 8.0 0.0 9.0 3.0 0.0 3.0 5.0 9.0 0.0 2.0 10.0 5.0 1.0 9.0 1.0 5.0 8.0 10.0 1.0 3.0 6.0 8.0 8.0 4.0 9.0 4.0 10.0 10.0 4.0 2.0 7.0 10.0 10.0 3.0 8.0 3.0 7.0 8.0 10.0 
5.0 2.0 2.0 2.0 3.0 10.0 10.0 8.0 0.0 8.0 3.0 2.0 6.0 2.0 10.0 8.0 2.0 -383.0 3.0 2.0 4.0 7.0 4.0 8.0 10.0 9.0 7.0 5.0 2.0 8.0 10.0 10.0 9.0 0.0 10.0 5.0 1.0 3.0 9.0 7.0 4.0 9.0 7.0 0.0 8.0 2.0 9.0 0.0 1.0 5.0 5.0 5.0 6.0 8.0 2.0 2.0 2.0 8.0 9.0 7.0 4.0 9.0 9.0 1.0 9.0 5.0 2.0 4.0 8.0 3.0 0.0 0.0 2.0 7.0 5.0 
8.0 4.0 4.0 5.0 3.0 4.0 0.0 7.0 8.0 0.0 5.0 9.0 3.0 7.0 1.0 8.0 3.0 3.0 -373.0 6.0 8.0 5.0 8.0 9.0 6.0 10.0 0.0 5.0 1.0 6.0 0.0 4.0 3.0 9.0 0.0 7.0 5.0 9.0 10.0 8.0 1.0 7.0 5.0 9.0 6.0 1.0 10.0 7.0 8.0 8.0 9.0 3.0 2.0 6.0 5.0 1.0 7.0 9.0 2.0 3.0 3.0 7.0 1.0 10.0 6.0 1.0 4.0 2.0 5.0 0.0 1.0 7.0 6.0 5.0 5.0 
2.0 1.0 9.0 3.0 0.0 6.0 2.0 3.0 6.0 7.0 4.0 6.0 7.0 0.0 1.0 9.0 1.0 2.0 6.0 -339.0 8.0 7.0 7.0 0.0 0.0 8.0 6.0 1.0 10.0 6.0 8.0 10.0 7.0 4.0 6.0 8.0 7.0 9.0 9.0 2.0 8.0 2.0 3.0 1.0 0.0 0.0 7.0 10.0 0.0 1.0 4.0 2.0 9.0 0.0 4.0 1.0 6.0 6.0 8.0 2.0 10.0 10.0 0.0 0.0 10.0 2.0 3.0 1.0 1.0 1.0 9.0 6.0 6.0 1.0 7.0 
8.0 10.0 1.0 5.0 3.0 4.0 4.0 6.0 9.0 1.0 4.0 1.0 0.0 8.0 8.0 2.0 9.0 4.0 8.0 8.0 -365.0 6.0 3.0 2.0 6.0 4.0 5.0 5.0 4.0 0.0 2.0 4.0 4.0 2.0 4.0 5.0 3.0 4.0 10.0 8.0 5.0 5.0 6.0 5.0 10.0 0.0 2.0 0.0 7.0 7.0 2.0 5.0 4.0 6.0 3.0 6.0 6.0 3.0 7.0 8.0 9.0 0.0 4.0 3.0 9.0 8.0 5.0 5.0 7.0 9.0 8.0 1.0 3.0 4.0 9.0 
10.0 8.0 7.0 4.0 5.0 5.0 2.0 7.0 10.0 9.0 1.0 6.0 6.0 9.0 1.0 6.0 6.0 7.0 5.0 7.0 6.0 -384.0 6.0 4.0 1.0 2.0 3.0 7.0 2.0 9.0 8.0 0.0 1.0 8.0 8.0 8.0 3.0 8.0 9.0 3.0 10.0 6.0 7.0 3.0 1.0 2.0 2.0 1.0 9.0 1.0 2.0 1.0 5.0 10.0 6.0 4.0 5.0 2.0 3.0 7.0 10.0 7.0 0.0 10.0 7.0 1.0 0.0 7.0 4.0 2.0 8.0 9.0 5.0 6.0 4.0 
7.0 7.0 3.0 4.0 1.0 7.0 5.0 8.0 1.0 10.0 3.0 0.0 9.0 8.0 10.0 3.0 7.0 4.0 8.0 7.0 3.0 6.0 -385.0 3.0 0.0 0.0 3.0 10.0 1.0 5.0 3.0 1.0 8.0 8.0 7.0 10.0 6.0 10.0 3.0 0.0 6.0 4.0 5.0 10.0 1.0 2.0 3.0 8.0 10.0 9.0 7.0 3.0 6.0 6.0 1.0 4.0 1.0 2.0 5.0 6.0 9.0 9.0 3.0 7.0 5.0 3.0 10.0 3.0 2.0 1.0 7.0 9.0 6.0 4.0 9.0 
3.0 8.0 7.0 2.0 9.0 0.0 3.0 3.0 7.0 6.0 8.0 2.0 2.0 1.0 10.0 4.0 0.0 8.0 9.0 0.0 2.0 4.0 3.0 -326.0 10.0 10.0 0.0 0.0 0.0 0.0 0.0 1.0 2.0 0.0 9.0 4.0 8.0 9.0 5.0 1.0 3.0 0.0 9.0 0.0 10.0 2.0 0.0 4.0 3.0 10.0 4.0 2.0 9.0 5.0 6.0 4.0 1.0 8.0 7.0 6.0 8.0 3.0 5.0 0.0 10.0 5.0 7.0 3.0 2.0 0.0 10.0 2.0 9.0 1.0 8.0 
3.0 7.0 6.0 3.0 2.0 3.0 9.0 5.0 4.0 8.0 3.0 6.0 9.0 4.0 1.0 0.0 2.0 10.0 6.0 0.0 6.0 1.0 0.0 10.0 -375.0 6.0 0.0 10.0 9.0 9.0 6.0 0.0 3.0 8.0 10.0 10.0 2.0 8.0 8.0 0.0 5.0 10.0 0.0 3.0 1.0 8.0 9.0 6.0 1.0 6.0 5.0 3.0 6.0 10.0 1.0 6.0 3.0 5.0 5.0 1.0 10.0 0.0 2.0 5.0 9.0 6.0 10.0 0.0 1.0 10.0 8.0 5.0 6.0 5.0 7.0 
10.0 5.0 8.0 2.0 3.0 10.0 2.0 8.0 5.0 4.0 1.0 5.0 7.0 3.0 7.0 0.0 8.0 9.0 10.0 8.0 4.0 2.0 0.0 10.0 6.0 -396.0 10.0 1.0 10.0 7.0 5.0 2.0 6.0 3.0 7.0 3.0 5.0 6.0 4.0 4.0 9.0 9.0 3.0 5.0 0.0 7.0 10.0 0.0 10.0 10.0 2.0 2.0 3.0 4.0 10.0 0.0 2.0 5.0 7.0 9.0 1.0 9.0 6.0 0.0 7.0 9.0 6.0 1.0 10.0 6.0 0.0 9.0 4.0 2.0 9.0 
2.0 2.0 7.0 9.0 6.0 0.0 7.0 2.0 1.0 8.0 9.0 9.0 10.0 0.0 0.0 4.0 10.0 7.0 0.0 6.0 5.0 3.0 3.0 0.0 0.0 10.0 -341.0 4.0 0.0 3.0 0.0 10.0 2.0 5.0 2.0 2.0 4.0 0.0 7.0 9.0 10.0 3.0 10.0 9.0 6.0 4.0 4.0 2.0 2.0 8.0 7.0 5.0 7.0 0.0 0.0 9.0 7.0 1.0 0.0 0.0 10.0 7.0 7.0 5.0 5.0 8.0 5.0 1.0 10.0 3.0 2.0 8.0 2.0 3.0 3.0 
5.0 10.0 4.0 4.0 6.0 3.0 8.0 4.0 0.0 10.0 0.0 0.0 10.0 1.0 0.0 3.0 4.0 5.0 5.0 1.0 5.0 7.0 10.0 0.0 10.0 1.0 4.0 -358.0 3.0 6.0 7.0 8.0 9.0 9.0 9.0 2.0 3.0 4.0 7.0 1.0 4.0 10.0 6.0 4.0 8.0 0.0 0.0 7.0 6.0 10.0 8.0 9.0 4.0 5.0 7.0 0.0 4.0 5.0 6.0 5.0 8.0 0.0 10.0 6.0 4.0 9.0 0.0 5.0 4.0 3.0 3.0 3.0 0.0 1.0 6.0 
1.0 4.0 6.0 6.0 0.0 3.0 3.0 4.0 6.0 1.0 8.0 5.0 8.0 5.0 9.0 10.0 1.0 2.0 1.0 10.0 4.0 2.0 1.0 0.0 9.0 10.0 0.0 3.0 -368.0 2.0 9.0 6.0 1.0 7.0 9.0 6.0 4.0 10.0 1.0 6.0 3.0 0.0 9.0 6.0 10.0 8.0 1.0 1.0 8.0 0.0 10.0 10.0 10.0 9.0 3.0 0.0 7.0 10.0 0.0 9.0 4.0 8.0 5.0 7.0 10.0 4.0 6.0 4.0 5.0 7.0 0.0 3.0 0.0 3.0 5.0 
7.0 2.0 0.0 1.0 5.0 7.0 2.0 4.0 3.0 0.0 7.0 3.0 1.0 8.0 5.0 2.0 7.0 8.0 6.0 6.0 0.0 9.0 5.0 0.0 9.0 7.0 3.0 6.0 2.0 -341.0 3.0 10.0 2.0 6.0 6.0 5.0 8.0 1.0 1.0 9.0 10.0 8.0 3.0 10.0 2.0 4.0 2.0 4.0 10.0 6.0 3.0 3.0 3.0 6.0 1.0 0.0 6.0 8.0 1.0 3.0 5.0 5.0 5.0 8.0 4.0 5.0 6.0 4.0 6.0 3.0 10.0 0.0 5.0 6.0 0.0 
7.0 1.0 9.0 3.0 7.0 3.0 7.0 3.0 5.0 1.0 5.0 4.0 5.0 4.0 6.0 1.0 10.0 10.0 0.0 8.0 2.0 8.0 3.0 0.0 6.0 5.0 0.0 7.0 9.0 3.0 -364.0 2.0 1.0 6.0 1.0 0.0 3.0 9.0 8.0 4.0 2.0 8.0 7.0 5.0 7.0 6.0 1.0 3.0 9.0 7.0 4.0 10.0 9.0 7.0 4.0 9.0 10.0 3.0 4.0 7.0 1.0 3.0 4.0 7.0 3.0 2.0 8.0 10.0 6.0 2.0 2.0 9.0 3.0 1.0 5.0 
5.0 6.0 0.0 6.0 10.0 8.0 7.0 2.0 4.0 4.0 0.0 0.0 9.0 7.0 2.0 5.0 5.0 10.0 4.0 10.0 4.0 0.0 1.0 1.0 0.0 2.0 10.0 8.0 6.0 10.0 2.0 -364.0 4.0 8.0 3.0 8.0 8.0 4.0 1.0 10.0 0.0 10.0 8.0 4.0 1.0 10.0 8.0 9.0 10.0 8.0 7.0 9.0 4.0 7.0 4.0 2.0 6.0 4.0 3.0 4.0 10.0 8.0 1.0 0.0 6.0 7.0 2.0 2.0 0.0 7.0 3.0 0.0 0.0 5.0 1.0 
9.0 1.0 7.0 2.0 9.0 4.0 5.0 6.0 1.0 4.0 0.0 0.0 8.0 8.0 7.0 4.0 8.0 9.0 3.0 7.0 4.0 1.0 8.0 2.0 3.0 6.0 2.0 9.0 1.0 2.0 1.0 4.0 -346.0 7.0 3.0 8.0 1.0 8.0 6.0 2.0 0.0 7.0 2.0 6.0 3.0 4.0 7.0 8.0 0.0 10.0 0.0 1.0 0.0 8.0 6.0 5.0 5.0 6.0 10.0 0.0 5.0 10.0 3.0 2.0 5.0 7.0 6.0 1.0 4.0 10.0 0.0 3.0 10.0 5.0 7.0 
3.0 1.0 7.0 2.0 9.0 6.0 7.0 8.0 5.0 2.0 3.0 7.0 8.0 1.0 3.0 8.0 6.0 0.0 9.0 4.0 2.0 8.0 8.0 0.0 8.0 3.0 5.0 9.0 7.0 6.0 6.0 8.0 7.0 -390.0 7.0 2.0 3.0 2.0 2.0 3.0 5.0 7.0 7.0 10.0 3.0 0.0 3.0 5.0 10.0 10.0 7.0 9.0 6.0 3.0 1.0 2.0 9.0 3.0 8.0 10.0 6.0 2.0 7.0 8.0 1.0 5.0 0.0 3.0 10.0 8.0 4.0 4.0 7.0 3.0 9.0 
6.0 5.0 4.0 7.0 1.0 1.0 2.0 3.0 0.0 0.0 8.0 6.0 9.0 0.0 2.0 5.0 5.0 10.0 0.0 6.0 4.0 8.0 7.0 9.0 10.0 7.0 2.0 9.0 9.0 6.0 1.0 3.0 3.0 7.0 -357.0 5.0 9.0 0.0 9.0 4.0 2.0 0.0 0.0 4.0 9.0 7.0 10.0 0.0 8.0 7.0 3.0 7.0 8.0 0.0 8.0 3.0 4.0 10.0 1.0 3.0 0.0 8.0 8.0 0.0 10.0 5.0 2.0 7.0 4.0 6.0 0.0 9.0 4.0 6.0 2.0 
5.0 9.0 10.0 3.0 10.0 6.0 2.0 1.0 10.0 2.0 6.0 0.0 0.0 9.0 6.0 10.0 8.0 5.0 7.0 8.0 5.0 8.0 10.0 4.0 10.0 3.0 2.0 2.0 6.0 5.0 0.0 8.0 8.0 2.0 5.0 -357.0 2.0 2.0 0.0 10.0 1.0 4.0 9.0 6.0 4.0 3.0 4.0 3.0 8.0 4.0 1.0 6.0 10.0 10.0 1.0 8.0 4.0 0.0 7.0 3.0 9.0 0.0 6.0 0.0 0.0 0.0 2.0 5.0 7.0 4.0 10.0 3.0 3.0 2.0 1.0 
6.0 10.0 8.0 0.0 0.0 8.0 9.0 0.0 2.0 7.0 8.0 8.0 7.0 9.0 10.0 5.0 8.0 1.0 5.0 7.0 3.0 3.0 6.0 8.0 2.0 5.0 4.0 3.0 4.0 8.0 3.0 8.0 1.0 3.0 9.0 2.0 -384.0 7.0 0.0 8.0 1.0 1.0 9.0 5.0 0.0 10.0 2.0 10.0 3.0 2.0 7.0 9.0 0.0 4.0 5.0 7.0 1.0 7.0 6.0 4.0 4.0 10.0 8.0 4.0 7.0 6.0 9.0 0.0 8.0 8.0 3.0 1.0 1.0 9.0 8.0 
7.0 8.0 7.0 5.0 10.0 8.0 4.0 1.0 10.0 0.0 2.0 4.0 0.0 0.0 5.0 7.0 0.0 3.0 9.0 9.0 4.0 8.0 10.0 9.0 8.0 6.0 0.0 4.0 10.0 1.0 9.0 4.0 8.0 2.0 0.0 2.0 7.0 -378.0 6.0 1.0 5.0 3.0 0.0 5.0 5.0 1.0 7.0 4.0 3.0 0.0 8.0 6.0 4.0 2.0 4.0 6.0 7.0 6.0 6.0 9.0 7.0 10.0 10.0 10.0 3.0 2.0 3.0 6.0 6.0 6.0 2.0 1.0 9.0 8.0 6.0 
10.0 8.0 5.0 4.0 4.0 0.0 1.0 1.0 0.0 5.0 10.0 6.0 0.0 10.0 1.0 4.0 9.0 9.0 10.0 9.0 10.0 9.0 3.0 5.0 8.0 4.0 7.0 7.0 1.0 1.0 8.0 1.0 6.0 2.0 9.0 0.0 0.0 6.0 -383.0 6.0 10.0 7.0 8.0 5.0 8.0 2.0 4.0 5.0 2.0 2.0 2.0 9.0 9.0 9.0 3.0 7.0 1.0 2.0 3.0 2.0 2.0 1.0 10.0 10.0 2.0 7.0 10.0 9.0 8.0 0.0 4.0 8.0 5.0 5.0 3.0 
2.0 8.0 6.0 5.0 3.0 7.0 8.0 3.0 5.0 6.0 1.0 9.0 2.0 6.0 9.0 5.0 3.0 7.0 8.0 2.0 8.0 3.0 0.0 1.0 0.0 4.0 9.0 1.0 6.0 9.0 4.0 10.0 2.0 3.0 4.0 10.0 8.0 1.0 6.0 -350.0 9.0 8.0 2.0 2.0 3.0 0.0 4.0 3.0 4.0 6.0 7.0 2.0 1.0 4.0 1.0 7.0 10.0 2.0 3.0 10.0 9.0 9.0 4.0 0.0 5.0 5.0 4.0 10.0 0.0 1.0 10.0 5.0 6.0 0.0 0.0 
4.0 3.0 4.0 7.0 10.0 5.0 7.0 5.0 7.0 1.0 9.0 5.0 4.0 4.0 9.0 2.0 0.0 4.0 1.0 8.0 5.0 10.0 6.0 3.0 5.0 9.0 10.0 4.0 3.0 10.0 2.0 0.0 0.0 5.0 2.0 1.0 1.0 5.0 10.0 9.0 -378.0 5.0 1.0 7.0 7.0 0.0 7.0 2.0 3.0 7.0 8.0 1.0 9.0 7.0 4.0 4.0 8.0 2.0 8.0 7.0 5.0 3.0 3.0 0.0 6.0 3.0 4.0 9.0 5.0 4.0 6.0 10.0 7.0 9.0 8.0 
8.0 6.0 6.0 1.0 1.0 3.0 0.0 7.0 8.0 2.0 7.0 2.0 9.0 10.0 2.0 0.0 3.0 9.0 7.0 2.0 5.0 6.0 4.0 0.0 10.0 9.0 3.0 10.0 0.0 8.0 8.0 10.0 7.0 7.0 0.0 4.0 1.0 3.0 7.0 8.0 5.0 -405.0 3.0 6.0 2.0 10.0 3.0 6.0 0.0 6.0 2.0 1.0 10.0 10.0 10.0 9.0 7.0 5.0 7.0 10.0 6.0 1.0 10.0 8.0 7.0 9.0 1.0 5.0 10.0 6.0 10.0 5.0 4.0 4.0 4.0 
3.0 10.0 2.0 1.0 1.0 3.0 8.0 7.0 10.0 8.0 1.0 1.0 8.0 10.0 9.0 0.0 5.0 7.0 5.0 3.0 6.0 7.0 5.0 9.0 0.0 3.0 10.0 6.0 9.0 3.0 7.0 8.0 2.0 7.0 0.0 9.0 9.0 0.0 8.0 2.0 1.0 3.0 -353.0 10.0 3.0 6.0 4.0 3.0 10.0 1.0 3.0 1.0 4.0 2.0 3.0 8.0 5.0 5.0 2.0 8.0 0.0 0.0 2.0 2.0 2.0 4.0 0.0 3.0 9.0 0.0 10.0 4.0 6.0 10.0 7.0 
2.0 10.0 1.0 7.0 10.0 6.0 9.0 1.0 5.0 4.0 3.0 5.0 9.0 9.0 1.0 7.0 9.0 0.0 9.0 1.0 5.0 3.0 10.0 0.0 3.0 5.0 9.0 4.0 6.0 10.0 5.0 4.0 6.0 10.0 4.0 6.0 5.0 5.0 5.0 2.0 7.0 6.0 10.0 -382.0 6.0 3.0 6.0 1.0 4.0 9.0 6.0 5.0 7.0 4.0 8.0 6.0 5.0 10.0 0.0 3.0 3.0 8.0 9.0 3.0 2.0 1.0 1.0 5.0 4.0 5.0 0.0 1.0 10.0 3.0 6.0 
3.0 5.0 6.0 9.0 4.0 2.0 8.0 0.0 10.0 6.0 8.0 4.0 4.0 7.0 6.0 3.0 0.0 8.0 6.0 0.0 10.0 1.0 1.0 10.0 1.0 0.0 6.0 8.0 10.0 2.0 7.0 1.0 3.0 3.0 9.0 4.0 0.0 5.0 8.0 3.0 7.0 2.0 3.0 6.0 -361.0 6.0 0.0 7.0 2.0 8.0 3.0 2.0 9.0 2.0 7.0 6.0 6.0 6.0 3.0 3.0 7.0 7.0 6.0 4.0 3.0 9.0 8.0 1.0 4.0 4.0 4.0 6.0 3.0 6.0 10.0 
7.0 1.0 8.0 3.0 8.0 8.0 2.0 5.0 5.0 2.0 6.0 2.0 3.0 7.0 7.0 0.0 2.0 2.0 1.0 0.0 0.0 2.0 2.0 2.0 8.0 7.0 4.0 0.0 8.0 4.0 6.0 10.0 4.0 0.0 7.0 3.0 10.0 1.0 2.0 0.0 0.0 10.0 6.0 3.0 6.0 -339.0 4.0 5.0 4.0 9.0 0.0 7.0 9.0 0.0 4.0 0.0 6.0 7.0 0.0 8.0 6.0 8.0 9.0 1.0 7.0 9.0 6.0 9.0 7.0 4.0 10.0 4.0 7.0 1.0 4.0 
9.0 7.0 9.0 5.0 8.0 5.0 8.0 8.0 9.0 7.0 8.0 0.0 5.0 0.0 4.0 6.0 10.0 9.0 10.0 7.0 2.0 2.0 3.0 0.0 9.0 10.0 4.0 0.0 1.0 2.0 1.0 8.0 7.0 3.0 10.0 4.0 2.0 7.0 4.0 4.0 7.0 3.0 4.0 6.0 0.0 4.0 -339.0 0.0 4.0 2.0 1.0 3.0 3.0 7.0 5.0 0.0 1.0 4.0 4.0 7.0 6.0 9.0 5.0 0.0 9.0 1.0 1.0 1.0 5.0 1.0 1.0 6.0 0.0 6.0 6.0 
1.0 10.0 4.0 8.0 10.0 0.0 2.0 3.0 5.0 1.0 6.0 9.0 1.0 7.0 9.0 3.0 5.0 0.0 7.0 10.0 0.0 1.0 8.0 4.0 6.0 0.0 2.0 7.0 1.0 4.0 3.0 9.0 8.0 5.0 0.0 3.0 10.0 4.0 5.0 3.0 2.0 6.0 3.0 1.0 7.0 5.0 0.0 -358.0 4.0 10.0 8.0 0.0 9.0 2.0 7.0 5.0 5.0 8.0 9.0 6.0 7.0 5.0 8.0 7.0 8.0 7.0 2.0 0.0 8.0 0.0 2.0 6.0 5.0 7.0 5.0 
4.0 9.0 8.0 9.0 4.0 8.0 2.0 1.0 4.0 10.0 5.0 1.0 9.0 9.0 4.0 2.0 1.0 1.0 8.0 0.0 7.0 9.0 10.0 3.0 1.0 10.0 2.0 6.0 8.0 10.0 9.0 10.0 0.0 10.0 8.0 8.0 3.0 3.0 2.0 4.0 3.0 0.0 10.0 4.0 2.0 4.0 4.0 4.0 -387.0 10.0 0.0 1.0 4.0 1.0 10.0 0.0 6.0 3.0 7.0 5.0 5.0 4.0 5.0 6.0 5.0 9.0 8.0 4.0 10.0 9.0 1.0 0.0 5.0 6.0 10.0 
5.0 4.0 5.0 8.0 10.0 7.0 6.0 9.0 7.0 7.0 0.0 3.0 10.0 6.0 0.0 4.0 9.0 5.0 8.0 1.0 7.0 1.0 9.0 10.0 6.0 10.0 8.0 10.0 0.0 6.0 7.0 8.0 10.0 10.0 7.0 4.0 2.0 0.0 2.0 6.0 7.0 6.0 1.0 9.0 8.0 9.0 2.0 10.0 10.0 -415.0 2.0 5.0 5.0 8.0 3.0 3.0 1.0 5.0 10.0 2.0 6.0 8.0 6.0 3.0 6.0 0.0 6.0 3.0 7.0 1.0 0.0 5.0 10.0 3.0 8.0 
6.0 6.0 9.0 8.0 1.0 2.0 8.0 7.0 8.0 2.0 4.0 9.0 8.0 9.0 0.0 7.0 1.0 5.0 9.0 4.0 2.0 2.0 7.0 4.0 5.0 2.0 7.0 8.0 10.0 3.0 4.0 7.0 0.0 7.0 3.0 1.0 7.0 8.0 2.0 7.0 8.0 2.0 3.0 6.0 3.0 0.0 1.0 8.0 0.0 2.0 -364.0 9.0 6.0 2.0 5.0 9.0 6.0 5.0 9.0 9.0 3.0 0.0 5.0 3.0 4.0 6.0 3.0 3.0 9.0 4.0 6.0 6.0 2.0 4.0 4.0 
9.0 10.0 2.0 7.0 0.0 5.0 6.0 1.0 4.0 7.0 5.0 3.0 4.0 8.0 3.0 1.0 5.0 5.0 3.0 2.0 5.0 1.0 3.0 2.0 3.0 2.0 5.0 9.0 10.0 3.0 10.0 9.0 1.0 9.0 7.0 6.0 9.0 6.0 9.0 2.0 1.0 1.0 1.0 5.0 2.0 7.0 3.0 0.0 1.0 5.0 9.0 -353.0 0.0 4.0 9.0 8.0 9.0 7.0 9.0 8.0 7.0 7.0 3.0 6.0 2.0 1.0 2.0 1.0 9.0 7.0 8.0 1.0 6.0 1.0 2.0 
8.0 10.0 7.0 3.0 1.0 9.0 6.0 1.0 0.0 1.0 7.0 2.0 1.0 10.0 5.0 5.0 8.0 6.0 2.0 9.0 4.0 5.0 6.0 9.0 6.0 3.0 7.0 4.0 10.0 3.0 9.0 4.0 0.0 6.0 8.0 10.0 0.0 4.0 9.0 1.0 9.0 10.0 4.0 7.0 9.0 9.0 3.0 9.0 4.0 5.0 6.0 0.0 -409.0 7.0 10.0 7.0 2.0 1.0 4.0 9.0 4.0 10.0 3.0 5.0 9.0 8.0 0.0 8.0 4.0 6.0 6.0 1.0 8.0 5.0 8.0 
2.0 7.0 0.0 1.0 2.0 3.0 8.0 3.0 2.0 3.0 0.0 9.0 3.0 9.0 0.0 9.0 10.0 8.0 6.0 0.0 6.0 10.0 6.0 5.0 10.0 4.0 0.0 5.0 9.0 6.0 7.0 7.0 8.0 3.0 0.0 10.0 4.0 2.0 9.0 4.0 7.0 10.0 2.0 4.0 2.0 0.0 7.0 2.0 1.0 8.0 2.0 4.0 7.0 -345.0 0.0 9.0 3.0 1.0 8.0 4.0 10.0 9.0 3.0 4.0 10.0 0.0 9.0 1.0 1.0 2.0 2.0 2.0 6.0 0.0 5.0 
6.0 6.0 0.0 7.0 3.0 9.0 10.0 2.0 1.0 3.0 6.0 0.0 8.0 4.0 5.0 8.0 1.0 2.0 5.0 4.0 3.0 6.0 1.0 6.0 1.0 10.0 0.0 7.0 3.0 1.0 4.0 4.0 6.0 1.0 8.0 1.0 5.0 4.0 3.0 1.0 4.0 10.0 3.0 8.0 7.0 4.0 5.0 7.0 10.0 3.0 5.0 9.0 10.0 0.0 -346.0 1.0 10.0 1.0 7.0 6.0 3.0 8.0 10.0 3.0 6.0 6.0 0.0 6.0 6.0 8.0 1.0 3.0 1.0 2.0 8.0 
8.0 2.0 10.0 10.0 10.0 6.0 1.0 6.0 9.0 1.0 5.0 4.0 7.0 0.0 2.0 8.0 3.0 2.0 1.0 1.0 6.0 4.0 4.0 4.0 6.0 0.0 9.0 0.0 0.0 0.0 9.0 2.0 5.0 2.0 3.0 8.0 7.0 6.0 7.0 7.0 4.0 9.0 8.0 6.0 6.0 0.0 0.0 5.0 0.0 3.0 9.0 8.0 7.0 9.0 1.0 -362.0 5.0 1.0 5.0 1.0 6.0 6.0 1.0 6.0 0.0 10.0 9.0 9.0 8.0 7.0 3.0 9.0 10.0 3.0 3.0 
0.0 6.0 3.0 5.0 8.0 0.0 7.0 1.0 8.0 4.0 8.0 10.0 4.0 4.0 2.0 1.0 6.0 2.0 7.0 6.0 6.0 5.0 1.0 1.0 3.0 2.0 7.0 4.0 7.0 6.0 10.0 6.0 5.0 9.0 4.0 4.0 1.0 7.0 1.0 10.0 8.0 7.0 5.0 5.0 6.0 6.0 1.0 5.0 6.0 1.0 6.0 9.0 2.0 3.0 10.0 5.0 -355.0 6.0 3.0 2.0 5.0 2.0 0.0 7.0 6.0 4.0 9.0 1.0 5.0 3.0 10.0 2.0 3.0 8.0 3.0 
0.0 5.0 7.0 5.0 7.0 8.0 9.0 6.0 4.0 3.0 10.0 9.0 5.0 4.0 5.0 6.0 8.0 8.0 9.0 6.0 3.0 2.0 2.0 8.0 5.0 5.0 1.0 5.0 10.0 8.0 3.0 4.0 6.0 3.0 10.0 0.0 7.0 6.0 2.0 2.0 2.0 5.0 5.0 10.0 6.0 7.0 4.0 8.0 3.0 5.0 5.0 7.0 1.0 1.0 1.0 1.0 6.0 -395.0 6.0 9.0 4.0 8.0 5.0 10.0 8.0 1.0 7.0 1.0 1.0 10.0 6.0 7.0 6.0 5.0 8.0 
4.0 2.0 10.0 10.0 5.0 6.0 4.0 3.0 4.0 7.0 10.0 2.0 8.0 1.0 0.0 3.0 8.0 9.0 2.0 8.0 7.0 3.0 5.0 7.0 5.0 7.0 0.0 6.0 0.0 1.0 4.0 3.0 10.0 8.0 1.0 7.0 6.0 6.0 3.0 3.0 8.0 7.0 2.0 0.0 3.0 0.0 4.0 9.0 7.0 10.0 9.0 9.0 4.0 8.0 7.0 5.0 3.0 6.0 -380.0 8.0 5.0 6.0 4.0 4.0 4.0 8.0 1.0 5.0 5.0 0.0 8.0 3.0 8.0 10.0 2.0 
4.0 2.0 6.0 2.0 4.0 5.0 0.0 6.0 6.0 2.0 10.0 2.0 2.0 9.0 7.0 1.0 4.0 7.0 3.0 2.0 8.0 7.0 6.0 6.0 1.0 9.0 0.0 5.0 9.0 3.0 7.0 4.0 0.0 10.0 3.0 3.0 4.0 9.0 2.0 10.0 7.0 10.0 8.0 3.0 3.0 8.0 7.0 6.0 5.0 2.0 9.0 8.0 9.0 4.0 6.0 1.0 2.0 9.0 8.0 -360.0 0.0 4.0 0.0 5.0 7.0 0.0 3.0 3.0 8.0 9.0 6.0 5.0 0.0 3.0 2.0 
2.0 9.0 9.0 6.0 9.0 10.0 1.0 3.0 9.0 5.0 6.0 7.0 3.0 0.0 3.0 6.0 9.0 4.0 3.0 10.0 9.0 10.0 9.0 8.0 10.0 1.0 10.0 8.0 4.0 5.0 1.0 10.0 5.0 6.0 0.0 9.0 4.0 7.0 2.0 9.0 5.0 6.0 0.0 3.0 7.0 6.0 6.0 7.0 5.0 6.0 3.0 7.0 4.0 10.0 3.0 6.0 5.0 4.0 5.0 0.0 -417.0 3.0 10.0 1.0 8.0 4.0 10.0 4.0 10.0 5.0 7.0 3.0 3.0 9.0 1.0 
6.0 9.0 10.0 7.0 7.0 8.0 3.0 0.0 7.0 1.0 9.0 5.0 1.0 5.0 8.0 4.0 4.0 9.0 7.0 10.0 0.0 7.0 9.0 3.0 0.0 9.0 7.0 0.0 8.0 5.0 3.0 8.0 10.0 2.0 8.0 0.0 10.0 10.0 1.0 9.0 3.0 1.0 0.0 8.0 7.0 8.0 9.0 5.0 4.0 8.0 0.0 7.0 10.0 9.0 8.0 6.0 2.0 8.0 6.0 4.0 3.0 -412.0 7.0 7.0 10.0 0.0 5.0 4.0 5.0 3.0 5.0 8.0 4.0 7.0 2.0 
8.0 10.0 5.0 10.0 3.0 2.0 7.0 9.0 7.0 2.0 5.0 9.0 9.0 2.0 10.0 9.0 10.0 9.0 1.0 0.0 4.0 0.0 3.0 5.0 2.0 6.0 7.0 10.0 5.0 5.0 4.0 1.0 3.0 7.0 8.0 6.0 8.0 10.0 10.0 4.0 3.0 10.0 2.0 9.0 6.0 9.0 5.0 8.0 5.0 6.0 5.0 3.0 3.0 3.0 10.0 1.0 0.0 5.0 4.0 0.0 10.0 7.0 -426.0 8.0 8.0 6.0 7.0 10.0 3.0 2.0 9.0 7.0 8.0 2.0 7.0 
1.0 6.0 10.0 1.0 6.0 7.0 4.0 3.0 1.0 5.0 8.0 1.0 2.0 4.0 9.0 2.0 10.0 1.0 10.0 0.0 3.0 10.0 7.0 0.0 5.0 0.0 5.0 6.0 7.0 8.0 7.0 0.0 2.0 8.0 0.0 0.0 4.0 10.0 10.0 0.0 0.0 8.0 2.0 3.0 4.0 1.0 0.0 7.0 6.0 3.0 3.0 6.0 5.0 4.0 3.0 6.0 7.0 10.0 4.0 5.0 1.0 7.0 8.0 -337.0 7.0 1.0 7.0 7.0 4.0 0.0 10.0 2.0 6.0 3.0 4.0 
9.0 8.0 5.0 2.0 5.0 8.0 2.0 8.0 4.0 0.0 6.0 10.0 3.0 2.0 0.0 6.0 4.0 9.0 6.0 10.0 9.0 7.0 5.0 10.0 9.0 7.0 5.0 4.0 10.0 4.0 3.0 6.0 5.0 1.0 10.0 0.0 7.0 3.0 2.0 5.0 6.0 7.0 2.0 2.0 3.0 7.0 9.0 8.0 5.0 6.0 4.0 2.0 9.0 10.0 6.0 0.0 6.0 8.0 4.0 7.0 8.0 10.0 8.0 7.0 -410.0 6.0 9.0 7.0 3.0 5.0 3.0 0.0 2.0 5.0 7.0 
9.0 1.0 2.0 10.0 10.0 2.0 5.0 6.0 3.0 2.0 3.0 7.0 8.0 10.0 10.0 5.0 2.0 5.0 1.0 2.0 8.0 1.0 3.0 5.0 6.0 9.0 8.0 9.0 4.0 5.0 2.0 7.0 7.0 5.0 5.0 0.0 6.0 2.0 7.0 5.0 3.0 9.0 4.0 1.0 9.0 9.0 1.0 7.0 9.0 0.0 6.0 1.0 8.0 0.0 6.0 10.0 4.0 1.0 8.0 0.0 4.0 0.0 6.0 1.0 6.0 -345.0 1.0 2.0 0.0 9.0 0.0 2.0 10.0 1.0 0.0 
7.0 4.0 2.0 6.0 5.0 4.0 10.0 7.0 5.0 0.0 1.0 9.0 2.0 10.0 2.0 6.0 7.0 2.0 4.0 3.0 5.0 0.0 10.0 7.0 10.0 6.0 5.0 0.0 6.0 6.0 8.0 2.0 6.0 0.0 2.0 2.0 9.0 3.0 10.0 4.0 4.0 1.0 0.0 1.0 8.0 6.0 1.0 2.0 8.0 6.0 3.0 2.0 0.0 9.0 0.0 9.0 9.0 7.0 1.0 3.0 10.0 5.0 7.0 7.0 9.0 1.0 -361.0 2.0 7.0 0.0 9.0 10.0 9.0 5.0 3.0 
7.0 0.0 7.0 4.0 4.0 3.0 5.0 5.0 7.0 9.0 8.0 5.0 2.0 3.0 7.0 10.0 10.0 4.0 2.0 1.0 5.0 7.0 3.0 3.0 0.0 1.0 1.0 5.0 4.0 4.0 10.0 2.0 1.0 3.0 7.0 5.0 0.0 6.0 9.0 10.0 9.0 5.0 3.0 5.0 1.0 9.0 1.0 0.0 4.0 3.0 3.0 1.0 8.0 1.0 6.0 9.0 1.0 1.0 5.0 3.0 4.0 4.0 10.0 7.0 7.0 2.0 2.0 -338.0 1.0 5.0 10.0 4.0 5.0 5.0 5.0 
7.0 0.0 5.0 7.0 6.0 1.0 10.0 3.0 10.0 2.0 10.0 6.0 7.0 3.0 6.0 8.0 10.0 8.0 5.0 1.0 7.0 4.0 2.0 2.0 1.0 10.0 10.0 4.0 5.0 6.0 6.0 0.0 4.0 10.0 4.0 7.0 8.0 6.0 8.0 0.0 5.0 10.0 9.0 4.0 4.0 7.0 5.0 8.0 10.0 7.0 9.0 9.0 4.0 1.0 6.0 8.0 5.0 1.0 5.0 8.0 10.0 5.0 3.0 4.0 3.0 0.0 7.0 1.0 -404.0 7.0 3.0 8.0 3.0 4.0 2.0 
10.0 0.0 5.0 0.0 2.0 6.0 4.0 1.0 5.0 3.0 8.0 7.0 9.0 10.0 5.0 9.0 3.0 3.0 0.0 1.0 9.0 2.0 1.0 0.0 10.0 6.0 3.0 3.0 7.0 3.0 2.0 7.0 10.0 8.0 6.0 4.0 8.0 6.0 0.0 1.0 4.0 6.0 0.0 5.0 4.0 4.0 1.0 0.0 9.0 1.0 4.0 7.0 6.0 2.0 8.0 7.0 3.0 10.0 0.0 9.0 5.0 3.0 2.0 0.0 5.0 9.0 0.0 5.0 7.0 -342.0 9.0 10.0 3.0 3.0 4.0 
8.0 0.0 8.0 3.0 5.0 8.0 7.0 9.0 4.0 9.0 1.0 5.0 5.0 8.0 0.0 6.0 8.0 0.0 1.0 9.0 8.0 8.0 7.0 10.0 8.0 0.0 2.0 3.0 0.0 10.0 2.0 3.0 0.0 4.0 0.0 10.0 3.0 2.0 4.0 10.0 6.0 10.0 10.0 0.0 4.0 10.0 1.0 2.0 1.0 0.0 6.0 8.0 6.0 2.0 1.0 3.0 10.0 6.0 8.0 6.0 7.0 5.0 9.0 10.0 3.0 0.0 9.0 10.0 3.0 9.0 -382.0 6.0 2.0 10.0 1.0 
3.0 0.0 6.0 9.0 5.0 9.0 8.0 9.0 7.0 3.0 8.0 1.0 0.0 8.0 0.0 9.0 3.0 0.0 7.0 6.0 1.0 9.0 9.0 2.0 5.0 9.0 8.0 3.0 3.0 0.0 9.0 0.0 3.0 4.0 9.0 3.0 1.0 1.0 8.0 5.0 10.0 5.0 4.0 1.0 6.0 4.0 6.0 6.0 0.0 5.0 6.0 1.0 1.0 2.0 3.0 9.0 2.0 7.0 3.0 5.0 3.0 8.0 7.0 2.0 0.0 2.0 10.0 4.0 8.0 10.0 6.0 -354.0 6.0 1.0 8.0 
10.0 0.0 7.0 1.0 2.0 4.0 6.0 6.0 3.0 6.0 0.0 1.0 9.0 1.0 6.0 2.0 7.0 2.0 6.0 6.0 3.0 5.0 6.0 9.0 6.0 4.0 2.0 0.0 0.0 5.0 3.0 0.0 10.0 7.0 4.0 3.0 1.0 9.0 5.0 6.0 7.0 4.0 6.0 10.0 3.0 7.0 0.0 5.0 5.0 10.0 2.0 6.0 8.0 6.0 1.0 10.0 3.0 6.0 8.0 0.0 3.0 4.0 8.0 6.0 2.0 10.0 9.0 5.0 3.0 3.0 2.0 6.0 -354.0 7.0 6.0 
9.0 0.0 0.0 5.0 1.0 0.0 2.0 3.0 1.0 10.0 3.0 8.0 9.0 2.0 0.0 4.0 8.0 7.0 5.0 1.0 4.0 6.0 4.0 1.0 5.0 2.0 3.0 1.0 3.0 6.0 1.0 5.0 5.0 3.0 6.0 2.0 9.0 8.0 5.0 0.0 9.0 4.0 10.0 3.0 6.0 1.0 6.0 7.0 6.0 3.0 4.0 1.0 5.0 0.0 2.0 3.0 8.0 5.0 10.0 3.0 9.0 7.0 2.0 3.0 5.0 1.0 5.0 5.0 4.0 3.0 10.0 1.0 7.0 -316.0 1.0 
0.0 0.0 8.0 6.0 6.0 0.0 3.0 5.0 6.0 10.0 9.0 0.0 2.0 10.0 2.0 0.0 10.0 5.0 5.0 7.0 9.0 4.0 9.0 8.0 7.0 9.0 3.0 6.0 5.0 0.0 5.0 1.0 7.0 9.0 2.0 1.0 8.0 6.0 3.0 0.0 8.0 4.0 7.0 6.0 10.0 4.0 6.0 5.0 10.0 8.0 4.0 2.0 8.0 5.0 8.0 3.0 3.0 8.0 2.0 2.0 1.0 2.0 7.0 4.0 7.0 0.0 3.0 5.0 2.0 4.0 1.0 8.0 6.0 1.0 -360.0 

